c Generated by SAT Solver
p cnf 3003 258
101 102 103 0
201 202 203 0
301 302 303 0
401 402 403 0
501 502 503 0
601 602 603 0
701 702 703 0
801 802 803 0
901 902 903 0
1001 1002 1003 0
1101 1102 1103 0
1201 1202 1203 0
1301 1302 1303 0
1401 1402 1403 0
1501 1502 1503 0
1601 1602 1603 0
1701 1702 1703 0
1801 1802 1803 0
1901 1902 1903 0
2001 2002 2003 0
2101 2102 2103 0
2201 2202 2203 0
2301 2302 2303 0
2401 2402 2403 0
2501 2502 2503 0
2601 2602 2603 0
2701 2702 2703 0
2801 2802 2803 0
2901 2902 2903 0
3001 3002 3003 0
-101 -102 0
-101 -103 0
-102 -103 0
-201 -202 0
-201 -203 0
-202 -203 0
-301 -302 0
-301 -303 0
-302 -303 0
-401 -402 0
-401 -403 0
-402 -403 0
-501 -502 0
-501 -503 0
-502 -503 0
-601 -602 0
-601 -603 0
-602 -603 0
-701 -702 0
-701 -703 0
-702 -703 0
-801 -802 0
-801 -803 0
-802 -803 0
-901 -902 0
-901 -903 0
-902 -903 0
-1001 -1002 0
-1001 -1003 0
-1002 -1003 0
-1101 -1102 0
-1101 -1103 0
-1102 -1103 0
-1201 -1202 0
-1201 -1203 0
-1202 -1203 0
-1301 -1302 0
-1301 -1303 0
-1302 -1303 0
-1401 -1402 0
-1401 -1403 0
-1402 -1403 0
-1501 -1502 0
-1501 -1503 0
-1502 -1503 0
-1601 -1602 0
-1601 -1603 0
-1602 -1603 0
-1701 -1702 0
-1701 -1703 0
-1702 -1703 0
-1801 -1802 0
-1801 -1803 0
-1802 -1803 0
-1901 -1902 0
-1901 -1903 0
-1902 -1903 0
-2001 -2002 0
-2001 -2003 0
-2002 -2003 0
-2101 -2102 0
-2101 -2103 0
-2102 -2103 0
-2201 -2202 0
-2201 -2203 0
-2202 -2203 0
-2301 -2302 0
-2301 -2303 0
-2302 -2303 0
-2401 -2402 0
-2401 -2403 0
-2402 -2403 0
-2501 -2502 0
-2501 -2503 0
-2502 -2503 0
-2601 -2602 0
-2601 -2603 0
-2602 -2603 0
-2701 -2702 0
-2701 -2703 0
-2702 -2703 0
-2801 -2802 0
-2801 -2803 0
-2802 -2803 0
-2901 -2902 0
-2901 -2903 0
-2902 -2903 0
-3001 -3002 0
-3001 -3003 0
-3002 -3003 0
-201 -1501 0
-202 -1502 0
-203 -1503 0
-201 -1701 0
-202 -1702 0
-203 -1703 0
-201 -2401 0
-202 -2402 0
-203 -2403 0
-201 -3001 0
-202 -3002 0
-203 -3003 0
-301 -1201 0
-302 -1202 0
-303 -1203 0
-301 -1501 0
-302 -1502 0
-303 -1503 0
-301 -2501 0
-302 -2502 0
-303 -2503 0
-401 -1301 0
-402 -1302 0
-403 -1303 0
-401 -1401 0
-402 -1402 0
-403 -1403 0
-401 -1901 0
-402 -1902 0
-403 -1903 0
-401 -3001 0
-402 -3002 0
-403 -3003 0
-501 -2001 0
-502 -2002 0
-503 -2003 0
-501 -2601 0
-502 -2602 0
-503 -2603 0
-601 -1801 0
-602 -1802 0
-603 -1803 0
-601 -2001 0
-602 -2002 0
-603 -2003 0
-601 -2801 0
-602 -2802 0
-603 -2803 0
-701 -1601 0
-702 -1602 0
-703 -1603 0
-701 -2201 0
-702 -2202 0
-703 -2203 0
-801 -2401 0
-802 -2402 0
-803 -2403 0
-801 -2801 0
-802 -2802 0
-803 -2803 0
-801 -3001 0
-802 -3002 0
-803 -3003 0
-901 -1301 0
-902 -1302 0
-903 -1303 0
-901 -1701 0
-902 -1702 0
-903 -1703 0
-901 -2401 0
-902 -2402 0
-903 -2403 0
-1001 -1201 0
-1002 -1202 0
-1003 -1203 0
-1001 -2901 0
-1002 -2902 0
-1003 -2903 0
-1101 -1601 0
-1102 -1602 0
-1103 -1603 0
-1101 -1701 0
-1102 -1702 0
-1103 -1703 0
-1101 -1901 0
-1102 -1902 0
-1103 -1903 0
-1101 -2401 0
-1102 -2402 0
-1103 -2403 0
-1101 -2801 0
-1102 -2802 0
-1103 -2803 0
-1101 -3001 0
-1102 -3002 0
-1103 -3003 0
-1201 -2601 0
-1202 -2602 0
-1203 -2603 0
-1301 -1501 0
-1302 -1502 0
-1303 -1503 0
-1301 -2801 0
-1302 -2802 0
-1303 -2803 0
-1401 -2101 0
-1402 -2102 0
-1403 -2103 0
-1501 -2201 0
-1502 -2202 0
-1503 -2203 0
-1601 -1901 0
-1602 -1902 0
-1603 -1903 0
-1601 -2601 0
-1602 -2602 0
-1603 -2603 0
-1701 -1901 0
-1702 -1902 0
-1703 -1903 0
-1701 -3001 0
-1702 -3002 0
-1703 -3003 0
-1901 -2701 0
-1902 -2702 0
-1903 -2703 0
-2101 -2801 0
-2102 -2802 0
-2103 -2803 0
-2201 -2901 0
-2202 -2902 0
-2203 -2903 0
-2401 -2601 0
-2402 -2602 0
-2403 -2603 0
-2801 -3001 0
-2802 -3002 0
-2803 -3003 0
